c File: flat50_3_0.col
c
c SOURCE: Joseph Culberson (joe@cs.ualberta.ca)
c DESCRIPTION: Quasi-random coloring problem
c              generated with flatness = 0
c                             probability = 0.139
c                             known coloring = 3
c                             random seed = 1918
c              Creation Date:  Tue Jun  9 12:21:09 1998
c Maximum degree = 8 Minimum degree = 1
c p edge 50 115
c cnf created by edge2cnf
p cnf 150 545
-1 -2 0
-1 -3 0
-2 -3 0
1 2 3 0
-4 -5 0
-4 -6 0
-5 -6 0
4 5 6 0
-7 -8 0
-7 -9 0
-8 -9 0
7 8 9 0
-10 -11 0
-10 -12 0
-11 -12 0
10 11 12 0
-13 -14 0
-13 -15 0
-14 -15 0
13 14 15 0
-16 -17 0
-16 -18 0
-17 -18 0
16 17 18 0
-19 -20 0
-19 -21 0
-20 -21 0
19 20 21 0
-22 -23 0
-22 -24 0
-23 -24 0
22 23 24 0
-25 -26 0
-25 -27 0
-26 -27 0
25 26 27 0
-28 -29 0
-28 -30 0
-29 -30 0
28 29 30 0
-31 -32 0
-31 -33 0
-32 -33 0
31 32 33 0
-34 -35 0
-34 -36 0
-35 -36 0
34 35 36 0
-37 -38 0
-37 -39 0
-38 -39 0
37 38 39 0
-40 -41 0
-40 -42 0
-41 -42 0
40 41 42 0
-43 -44 0
-43 -45 0
-44 -45 0
43 44 45 0
-46 -47 0
-46 -48 0
-47 -48 0
46 47 48 0
-49 -50 0
-49 -51 0
-50 -51 0
49 50 51 0
-52 -53 0
-52 -54 0
-53 -54 0
52 53 54 0
-55 -56 0
-55 -57 0
-56 -57 0
55 56 57 0
-58 -59 0
-58 -60 0
-59 -60 0
58 59 60 0
-61 -62 0
-61 -63 0
-62 -63 0
61 62 63 0
-64 -65 0
-64 -66 0
-65 -66 0
64 65 66 0
-67 -68 0
-67 -69 0
-68 -69 0
67 68 69 0
-70 -71 0
-70 -72 0
-71 -72 0
70 71 72 0
-73 -74 0
-73 -75 0
-74 -75 0
73 74 75 0
-76 -77 0
-76 -78 0
-77 -78 0
76 77 78 0
-79 -80 0
-79 -81 0
-80 -81 0
79 80 81 0
-82 -83 0
-82 -84 0
-83 -84 0
82 83 84 0
-85 -86 0
-85 -87 0
-86 -87 0
85 86 87 0
-88 -89 0
-88 -90 0
-89 -90 0
88 89 90 0
-91 -92 0
-91 -93 0
-92 -93 0
91 92 93 0
-94 -95 0
-94 -96 0
-95 -96 0
94 95 96 0
-97 -98 0
-97 -99 0
-98 -99 0
97 98 99 0
-100 -101 0
-100 -102 0
-101 -102 0
100 101 102 0
-103 -104 0
-103 -105 0
-104 -105 0
103 104 105 0
-106 -107 0
-106 -108 0
-107 -108 0
106 107 108 0
-109 -110 0
-109 -111 0
-110 -111 0
109 110 111 0
-112 -113 0
-112 -114 0
-113 -114 0
112 113 114 0
-115 -116 0
-115 -117 0
-116 -117 0
115 116 117 0
-118 -119 0
-118 -120 0
-119 -120 0
118 119 120 0
-121 -122 0
-121 -123 0
-122 -123 0
121 122 123 0
-124 -125 0
-124 -126 0
-125 -126 0
124 125 126 0
-127 -128 0
-127 -129 0
-128 -129 0
127 128 129 0
-130 -131 0
-130 -132 0
-131 -132 0
130 131 132 0
-133 -134 0
-133 -135 0
-134 -135 0
133 134 135 0
-136 -137 0
-136 -138 0
-137 -138 0
136 137 138 0
-139 -140 0
-139 -141 0
-140 -141 0
139 140 141 0
-142 -143 0
-142 -144 0
-143 -144 0
142 143 144 0
-145 -146 0
-145 -147 0
-146 -147 0
145 146 147 0
-148 -149 0
-148 -150 0
-149 -150 0
148 149 150 0
-70 -1 0
-71 -2 0
-72 -3 0
-76 -1 0
-77 -2 0
-78 -3 0
-79 -1 0
-80 -2 0
-81 -3 0
-121 -1 0
-122 -2 0
-123 -3 0
-127 -1 0
-128 -2 0
-129 -3 0
-136 -1 0
-137 -2 0
-138 -3 0
-58 -4 0
-59 -5 0
-60 -6 0
-67 -4 0
-68 -5 0
-69 -6 0
-91 -4 0
-92 -5 0
-93 -6 0
-139 -4 0
-140 -5 0
-141 -6 0
-142 -4 0
-143 -5 0
-144 -6 0
-115 -7 0
-116 -8 0
-117 -9 0
-130 -7 0
-131 -8 0
-132 -9 0
-133 -7 0
-134 -8 0
-135 -9 0
-91 -10 0
-92 -11 0
-93 -12 0
-109 -10 0
-110 -11 0
-111 -12 0
-148 -10 0
-149 -11 0
-150 -12 0
-76 -13 0
-77 -14 0
-78 -15 0
-88 -13 0
-89 -14 0
-90 -15 0
-124 -13 0
-125 -14 0
-126 -15 0
-139 -13 0
-140 -14 0
-141 -15 0
-85 -16 0
-86 -17 0
-87 -18 0
-94 -16 0
-95 -17 0
-96 -18 0
-124 -16 0
-125 -17 0
-126 -18 0
-127 -16 0
-128 -17 0
-129 -18 0
-145 -16 0
-146 -17 0
-147 -18 0
-148 -16 0
-149 -17 0
-150 -18 0
-70 -19 0
-71 -20 0
-72 -21 0
-106 -19 0
-107 -20 0
-108 -21 0
-115 -19 0
-116 -20 0
-117 -21 0
-133 -19 0
-134 -20 0
-135 -21 0
-148 -19 0
-149 -20 0
-150 -21 0
-61 -22 0
-62 -23 0
-63 -24 0
-70 -22 0
-71 -23 0
-72 -24 0
-82 -22 0
-83 -23 0
-84 -24 0
-91 -22 0
-92 -23 0
-93 -24 0
-112 -22 0
-113 -23 0
-114 -24 0
-127 -22 0
-128 -23 0
-129 -24 0
-133 -22 0
-134 -23 0
-135 -24 0
-94 -25 0
-95 -26 0
-96 -27 0
-100 -25 0
-101 -26 0
-102 -27 0
-115 -25 0
-116 -26 0
-117 -27 0
-127 -25 0
-128 -26 0
-129 -27 0
-61 -28 0
-62 -29 0
-63 -30 0
-79 -28 0
-80 -29 0
-81 -30 0
-130 -28 0
-131 -29 0
-132 -30 0
-52 -31 0
-53 -32 0
-54 -33 0
-67 -31 0
-68 -32 0
-69 -33 0
-70 -31 0
-71 -32 0
-72 -33 0
-94 -31 0
-95 -32 0
-96 -33 0
-100 -34 0
-101 -35 0
-102 -36 0
-103 -34 0
-104 -35 0
-105 -36 0
-118 -34 0
-119 -35 0
-120 -36 0
-130 -34 0
-131 -35 0
-132 -36 0
-73 -37 0
-74 -38 0
-75 -39 0
-85 -37 0
-86 -38 0
-87 -39 0
-94 -37 0
-95 -38 0
-96 -39 0
-100 -37 0
-101 -38 0
-102 -39 0
-115 -37 0
-116 -38 0
-117 -39 0
-121 -37 0
-122 -38 0
-123 -39 0
-133 -37 0
-134 -38 0
-135 -39 0
-58 -40 0
-59 -41 0
-60 -42 0
-79 -40 0
-80 -41 0
-81 -42 0
-52 -43 0
-53 -44 0
-54 -45 0
-58 -43 0
-59 -44 0
-60 -45 0
-76 -43 0
-77 -44 0
-78 -45 0
-109 -43 0
-110 -44 0
-111 -45 0
-124 -43 0
-125 -44 0
-126 -45 0
-142 -43 0
-143 -44 0
-144 -45 0
-55 -46 0
-56 -47 0
-57 -48 0
-79 -46 0
-80 -47 0
-81 -48 0
-91 -46 0
-92 -47 0
-93 -48 0
-100 -46 0
-101 -47 0
-102 -48 0
-109 -46 0
-110 -47 0
-111 -48 0
-136 -46 0
-137 -47 0
-138 -48 0
-148 -46 0
-149 -47 0
-150 -48 0
-58 -49 0
-59 -50 0
-60 -51 0
-97 -49 0
-98 -50 0
-99 -51 0
-112 -52 0
-113 -53 0
-114 -54 0
-130 -55 0
-131 -56 0
-132 -57 0
-133 -64 0
-134 -65 0
-135 -66 0
-106 -67 0
-107 -68 0
-108 -69 0
-121 -67 0
-122 -68 0
-123 -69 0
-124 -67 0
-125 -68 0
-126 -69 0
-145 -67 0
-146 -68 0
-147 -69 0
-109 -70 0
-110 -71 0
-111 -72 0
-121 -70 0
-122 -71 0
-123 -72 0
-142 -70 0
-143 -71 0
-144 -72 0
-145 -70 0
-146 -71 0
-147 -72 0
-148 -73 0
-149 -74 0
-150 -75 0
-118 -76 0
-119 -77 0
-120 -78 0
-130 -76 0
-131 -77 0
-132 -78 0
-136 -76 0
-137 -77 0
-138 -78 0
-139 -76 0
-140 -77 0
-141 -78 0
-115 -79 0
-116 -80 0
-117 -81 0
-127 -79 0
-128 -80 0
-129 -81 0
-118 -82 0
-119 -83 0
-120 -84 0
-139 -82 0
-140 -83 0
-141 -84 0
-124 -85 0
-125 -86 0
-126 -87 0
-127 -85 0
-128 -86 0
-129 -87 0
-142 -85 0
-143 -86 0
-144 -87 0
-106 -88 0
-107 -89 0
-108 -90 0
-121 -88 0
-122 -89 0
-123 -90 0
-127 -88 0
-128 -89 0
-129 -90 0
-148 -88 0
-149 -89 0
-150 -90 0
-142 -91 0
-143 -92 0
-144 -93 0
-109 -94 0
-110 -95 0
-111 -96 0
-127 -94 0
-128 -95 0
-129 -96 0
-139 -94 0
-140 -95 0
-141 -96 0
-142 -94 0
-143 -95 0
-144 -96 0
-112 -97 0
-113 -98 0
-114 -99 0
-139 -97 0
-140 -98 0
-141 -99 0
-130 -100 0
-131 -101 0
-132 -102 0
-133 -100 0
-134 -101 0
-135 -102 0
-136 -100 0
-137 -101 0
-138 -102 0
